Route #1: 127 17 149 89 14 1 55 60 21 9 27 117 97 77 161
Route #2: 72 135 159 147 121 85 160 84 122 107 133 138 126 139 15
Route #3: 29 10 105 144 119 141 115 156 59
Route #4: 103 40 112 157 30 118 82 2 109 148 134 124 128 110 153 143
Route #5: 155 92 125 93 132 87 4 101 151 146 39 137 108 158 91 136
Route #6: 23 24 49 6 13 71 37 131 57 32 16 5 120 81 74
Route #7: 50 45 152 28 26 48 11 73 38 58 68 145 90 150
Route #8: 53 86 130 99 35 36 94 100 66 56 123 43 142 102 116 52
Route #9: 54 78 20 67 62 114 95 129 96 88 106 31 140 154 111 80
Route #10: 8 76 41 61 46 69 65 42 51 3 33 75 44 7 34
Route #11: 25 47 98 83 104 63 113 70 12 64 18 19 22 79
